35
0 0
16 6
27
20
16 0
19 35
28
20
19 0
22 29
26
19
22 0
32 9
25
18
0 6
7 24
23
17
32 0
35 31
20
14
7 6
15 24
22
16
22 9
24 34
21
15
24 9
28 20
24
17
28 9
32 31
17
12
24 20
27 49
13
10
0 24
12 31
19
14
0 31
10 49
18
13
27 31
34 49
15
11
10 35
20 48
16
12
0 49
18 55
14
11
20 34
24 49
12
10
18 49
23 66
11
9
0 55
16 59
10
9
23 49
26 67
9
8
26 49
28 78
8
7
28 49
32 81
7
6
0 59
8 73
6
5
8 59
14 74
5
4
14 66
20 82
4
4
0 74
10 83
3
3
32 49
35 79
1
2
20 66
23 90
2
2
0 83
13 90
0
1
